c ---- [ banner ] ------------------------------------------------------------
c
c Kissat SAT Solver
c 
c Copyright (c) 2021-2024 Armin Biere University of Freiburg
c Copyright (c) 2019-2021 Armin Biere Johannes Kepler University Linz
c 
c Version 4.0.1 43f02cf3e992cb44653b35e5cb26f93281552ae0
c gcc (Ubuntu 13.2.0-23ubuntu4) 13.2.0 -W -Wall -O3 -DNDEBUG
c Thu Sep 12 12:27:46 CEST 2024 Linux abryzen9 6.8.0-41-generic x86_64
c
c ---- [ parsing ] -----------------------------------------------------------
c
c opened and reading DIMACS file:
c
c   /data/artifact/AMulet2.0_artifact/exp4/cnf_resyn3_64/64_64_U2_DT_JCA_Multgen_resyn3.cnf
c
c parsed 'p cnf 27132 123975' header
c closing input after reading 2473537 bytes (2 MB)
c finished parsing after 0.02 seconds
c
c ---- [ options ] -----------------------------------------------------------
c
c --stable=0                       (different from default '1')
c
c ---- [ solving ] -----------------------------------------------------------
c
c  seconds switched rate     size/glue tier1  binary          remaining
c         MB reductions conflicts size  tier2    irredundant
c          level restarts redundant glue  trail          variables
c
c *  0.02 10 0 0 0  0 0   0   0 0.0 0 0 0 0 0% 3050 120923 27129 100%
c (  0.04 12 0 0 0  0 0   0   0 0.0 0 0 0 0 0% 3050 120923 27129 100%
c .  0.05 12 0 0 0  0 0   0   0 0.0 0 0 0 0 0% 3046 120923 27129 100%
c f  0.33 16 0 0 0  0 0   0   0 0.0 0 0 0 0 0% 9954 110433 30594 113%
c e  0.57 25 0 0 0  0 0   0   0 0.0 0 0 0 0 0% 2030 121377 20487 76%
c )  0.57 25 0 0 0  0 0   0   0 0.0 0 0 0 0 0% 2030 121377 20487 76%
c {  0.59 25 0 0 0  0 0   0   0 0.0 0 0 2 6 0% 2030 121377 20487 76%
c -  0.80 25 164 0 1 257 41 1002 830 2.1 9 4 3 8 14% 2076 121377 20487 76%
c -  1.12 25 249 0 2 442 49 2005 1617 3.7 18 5 3 9 21% 2093 121377 20487 76%
c d  1.28 25 315 0 2 512 52 2504 2082 3.8 19 5 3 9 22% 2088 121377 20483 75%
c u  1.31 25 315 0 2 512 52 2504 1793 3.8 19 5 3 9 22% 2089 121377 20483 75%
c v  1.33 25 315 0 2 512 52 2504 1552 3.8 19 5 3 9 22% 2089 121377 20483 75%
c w  1.36 25 315 0 2 512 52 2504 1552 3.8 19 5 3 9 22% 2089 121377 20483 75%
c x  1.38 25 315 0 2 512 52 2504 1552 3.8 19 5 3 9 22% 2089 121039 20483 75%
c t  1.40 25 315 0 2 512 52 2504 1552 3.8 19 5 3 9 22% 2086 121039 20483 75%
c f  1.43 25 315 0 2 512 52 2504 1552 3.8 19 5 3 9 22% 2148 120856 20515 76%
c c  1.51 21 315 0 2 512 52 2504 1552 3.8 19 5 3 9 22% 2151 120852 20514 76%
c d  1.52 21 315 0 2 512 52 2504 1552 3.8 19 5 3 9 22% 2149 120852 20514 76%
c u  1.54 21 315 0 2 512 52 2504 1517 3.8 19 5 3 9 22% 2149 120852 20514 76%
c v  1.55 22 315 0 2 512 52 2504 1470 3.8 19 5 3 9 22% 2149 120852 20514 76%
c
c  seconds   switched   rate       size/glue tier1    binary          remaining
c         MB  reductions conflicts       size  tier2     irredundant
c           level restarts    redundant    glue   trail          variables
c
c w  1.60 24 315 0 2 512 52 2504 1467 3.8 19 5 3 9 22% 2149 120852 20514 76%
c x  1.62 24 315 0 2 512 52 2504 1467 3.8 19 5 3 9 22% 2149 120837 20514 76%
c =  1.72 24 315 0 2 512 52 2504 1467 3.8 19 5 3 9 22% 2155 120837 20511 76%
c d  1.73 24 315 0 2 512 52 2504 1467 3.8 19 5 3 9 22% 2146 120837 20511 76%
c f  1.78 24 315 0 2 512 52 2504 1467 3.8 19 5 3 9 22% 2182 120780 20530 76%
c -  1.99 24 354 0 3 624 49 3420 2116 3.5 17 5 3 9 22% 2194 120780 20530 76%
c -  2.53 24 339 0 4 890 48 5152 3366 3.5 18 5 3 10 23% 2239 120780 20530 76%
c -  3.03 25 379 0 5 1085 48 7152 4607 3.4 17 5 2 10 23% 2271 120780 20530 76%
c d  3.21 25 361 0 5 1143 47 7713 5129 3.3 18 5 2 10 23% 2257 120780 20520 76%
c u  3.24 25 361 0 5 1143 47 7713 4755 3.3 18 5 2 10 23% 2262 120780 20520 76%
c v  3.28 25 361 0 5 1143 47 7713 4028 3.3 18 5 2 10 23% 2263 120780 20520 76%
c w  3.33 25 361 0 5 1143 47 7713 4022 3.3 18 5 2 10 23% 2263 120780 20520 76%
c =  3.50 25 361 0 5 1143 47 7713 4022 3.3 18 5 2 10 23% 2327 120780 20488 76%
c d  3.51 25 361 0 5 1143 47 7713 4018 3.3 18 5 2 10 23% 2262 120780 20488 76%
c t  3.52 25 361 0 5 1143 47 7713 4018 3.3 18 5 2 10 23% 2261 120780 20488 76%
c f  3.56 25 361 0 5 1143 47 7713 4018 3.3 18 5 2 10 23% 2343 120657 20529 76%
c u  3.60 25 361 0 5 1143 47 7713 3954 3.3 18 5 2 10 23% 2343 120657 20529 76%
c v  3.63 25 361 0 5 1143 47 7713 3867 3.3 18 5 2 10 23% 2343 120657 20529 76%
c w  3.66 25 361 0 5 1143 47 7713 3860 3.3 18 5 2 10 23% 2343 120657 20529 76%
c x  3.71 25 361 0 5 1143 47 7713 3860 3.3 18 5 2 10 23% 2343 120629 20529 76%
c
c  seconds   switched    rate       size/glue tier1     binary          remaining
c         MB  reductions  conflicts       size  tier2      irredundant
c           level  restarts    redundant    glue    trail          variables
c
c =  3.87 25 361 0 5 1143 47 7713 3860 3.3 18 5 2 10 23% 2485 120629 20458 75%
c d  3.88 25 361 0 5 1143 47 7713 3858 3.3 18 5 2 10 23% 2339 120629 20458 75%
c t  3.90 25 361 0 5 1143 47 7713 3858 3.3 18 5 2 10 23% 2303 120629 20458 75%
c f  3.94 25 361 0 5 1143 47 7713 3858 3.3 18 5 2 10 23% 2427 120443 20520 76%
c -  4.85 25 348 0 6 1426 48 9391 4862 3.9 24 6 2 9 25% 2443 120443 20520 76%
c o  4.93 25 339 0 6 1442 46 10002 5381 3.8 23 6 2 9 24% 2451 120443 20520 76%
c -  5.35 25 336 0 7 1570 44 11842 6320 3.8 23 6 2 8 24% 2495 120443 20520 76%
c s  5.50 25 340 0 7 1596 42 12519 6858 3.8 23 6 2 8 24% 2530 119654 20520 76%
c e  5.64 25 340 0 7 1596 42 12519 6858 3.8 23 6 2 8 24% 2013 119902 20149 74%
c s  5.64 25 340 0 7 1596 42 12519 6858 3.8 23 6 2 8 24% 2013 119453 20149 74%
c e  5.66 25 340 0 7 1596 42 12519 6858 3.8 23 6 2 8 24% 1938 119507 20103 74%
c ^  5.66 25 340 0 7 1596 42 12519 6858 3.8 23 6 2 8 24% 1938 119507 20103 74%
c -  6.26 25 335 0 8 1774 43 14487 7555 3.8 23 6 2 8 24% 1992 119507 20103 74%
c c  6.98 25 332 0 8 1973 43 15800 8733 4.1 26 6 2 8 25% 2032 119367 20081 74%
c d  6.99 25 332 0 8 1973 43 15800 8726 4.1 26 6 2 8 25% 1980 119367 20077 74%
c u  7.03 25 332 0 8 1973 43 15800 7911 4.1 26 6 2 8 25% 1993 119367 20077 74%
c v  7.08 25 332 0 8 1973 43 15800 6902 4.1 26 6 2 8 25% 1994 119367 20077 74%
c w  7.26 25 332 0 8 1973 43 15800 6888 4.1 26 6 2 8 25% 1994 119367 20077 74%
c =  7.50 25 332 0 8 1973 43 15800 6888 4.1 26 6 2 8 25% 2796 119363 19676 73%
c d  7.51 25 332 0 8 1973 43 15800 6868 4.1 26 6 2 8 25% 1966 119363 19676 73%
c
c  seconds   switched    rate        size/glue tier1    binary          remaining
c         MB  reductions   conflicts       size  tier2     irredundant
c           level  restarts     redundant    glue   trail          variables
c
c t  7.53 25 332 0 8 1973 43 15800 6868 4.1 26 6 2 8 25% 1912 119363 19676 73%
c f  7.59 25 332 0 8 1973 43 15800 6868 4.1 26 6 2 8 25% 1933 119308 19691 73%
c u  7.64 25 332 0 8 1973 43 15800 6674 4.1 26 6 2 8 25% 1934 119308 19691 73%
c v  7.68 25 332 0 8 1973 43 15800 6518 4.1 26 6 2 8 25% 1935 119308 19691 73%
c w  7.91 25 332 0 8 1973 43 15800 6469 4.1 26 6 2 8 25% 1935 119308 19691 73%
c =  8.18 25 332 0 8 1973 43 15800 6469 4.1 26 6 2 8 25% 6009 119308 17654 65%
c d  8.19 25 332 0 8 1973 43 15800 6424 4.1 26 6 2 8 25% 1840 119308 17654 65%
c t  8.21 25 332 0 8 1973 43 15800 6424 4.1 26 6 2 8 25% 1835 119308 17654 65%
c f  8.28 25 332 0 8 1973 43 15800 6424 4.1 26 6 2 8 25% 1849 119275 17662 65%
c -  8.80 25 330 0 9 2133 43 17317 7046 4.0 26 6 2 8 26% 1891 119275 17662 65%
c o  9.76 25 311 0 9 2419 42 20004 9479 4.0 27 7 2 8 26% 1922 119275 17662 65%
c -  9.90 25 309 0 10 2461 42 20318 8862 4.0 27 7 2 7 26% 1924 119275 17662 65%
c - 10.59 26 303 0 11 2722 40 23481 10518 3.9 26 7 2 7 26% 1978 119275 17662 65%
c s 10.75 26 301 0 11 2774 38 25035 11667 3.9 26 7 2 7 26% 2068 103496 17662 65%
c e 10.83 26 301 0 11 2774 38 25035 11667 3.9 26 7 2 7 26% 1671 103970 17357 64%
c s 10.83 26 301 0 11 2774 38 25035 11667 3.9 26 7 2 7 26% 1699 103437 17357 64%
c e 10.84 26 301 0 11 2774 38 25035 11667 3.9 26 7 2 7 26% 1693 103446 17354 64%
c ^ 10.84 26 301 0 11 2774 38 25035 11667 3.9 26 7 2 7 26% 1693 103446 17354 64%
c - 11.20 26 293 0 12 2982 38 26797 11339 3.6 27 8 2 7 26% 1705 103446 17354 64%
c c 11.27 26 293 0 12 2985 38 26941 11459 3.6 27 8 2 7 26% 1749 103248 17328 64%
c
c  seconds   switched     rate         size/glue tier1    binary          remaining
c         MB   reductions   conflicts        size  tier2     irredundant
c           level   restarts      redundant    glue   trail          variables
c
c d 11.27 26 293 0 12 2985 38 26941 11397 3.6 27 8 2 7 26% 1692 103248 17325 64%
c u 11.31 26 293 0 12 2985 38 26941 10085 3.6 27 8 2 7 26% 1708 103248 17325 64%
c v 11.34 26 293 0 12 2985 38 26941 8998 3.6 27 8 2 7 26% 1708 103248 17325 64%
c w 11.35 26 293 0 12 2985 38 26941 8996 3.6 27 8 2 7 26% 1708 103248 17325 64%
c x 11.40 26 293 0 12 2985 38 26941 8996 3.6 27 8 2 7 26% 1711 102362 17325 64%
c = 11.63 26 293 0 12 2985 38 26941 8996 3.6 27 8 2 7 26% 5231 102362 15565 57%
c d 11.64 26 293 0 12 2985 38 26941 8868 3.6 27 8 2 7 26% 1561 102362 15564 57%
c t 11.64 26 293 0 12 2985 38 26941 8868 3.6 27 8 2 7 26% 1527 102362 15564 57%
c f 11.70 26 293 0 12 2985 38 26941 8868 3.6 27 8 2 7 26% 1536 102306 15576 57%
c c 11.74 26 293 0 12 2985 38 26941 8864 3.6 27 8 2 7 26% 1548 102262 15570 57%
c d 11.74 26 293 0 12 2985 38 26941 8864 3.6 27 8 2 7 26% 1536 102262 15570 57%
c u 11.77 26 293 0 12 2985 38 26941 8471 3.6 27 8 2 7 26% 1536 102262 15570 57%
c v 11.79 26 293 0 12 2985 38 26941 8285 3.6 27 8 2 7 26% 1536 102262 15570 57%
c w 11.80 26 293 0 12 2985 38 26941 8284 3.6 27 8 2 7 26% 1536 102262 15570 57%
c = 12.02 26 293 0 12 2985 38 26941 8284 3.6 27 8 2 7 26% 3294 102262 14691 54%
c d 12.03 26 293 0 12 2985 38 26941 8118 3.6 27 8 2 7 26% 1510 102262 14691 54%
c t 12.03 26 293 0 12 2985 38 26941 8118 3.6 27 8 2 7 26% 1441 102262 14691 54%
c f 12.06 26 293 0 12 2985 38 26941 8118 3.6 27 8 2 7 26% 1456 102185 14706 54%
c - 12.48 26 291 0 13 3190 36 30263 10110 3.5 26 8 2 7 27% 1485 102185 14706 54%
c - 12.64 26 290 0 14 3267 33 33868 11939 3.4 25 7 2 7 26% 1536 102185 14706 54%
c
c  seconds   switched     rate         size/glue tier1    binary          remaining
c         MB   reductions   conflicts        size  tier2     irredundant
c           level   restarts      redundant    glue   trail          variables
c
c - 13.19 26 276 0 15 3553 32 37611 13633 3.3 25 7 2 6 26% 1572 102185 14706 54%
c o 13.41 26 274 0 15 3657 31 40004 15716 3.3 24 7 2 6 26% 1608 102185 14706 54%
c d 13.62 26 270 0 15 3761 31 41268 16773 3.3 25 7 2 6 26% 1548 102185 14673 54%
c u 13.66 26 270 0 15 3761 31 41268 15661 3.3 25 7 2 6 26% 1581 102185 14673 54%
c v 13.69 26 270 0 15 3761 31 41268 15060 3.3 25 7 2 6 26% 1581 102185 14673 54%
c w 13.72 26 270 0 15 3761 31 41268 15060 3.3 25 7 2 6 26% 1581 102185 14673 54%
c x 13.75 28 270 0 15 3761 31 41268 15060 3.3 25 7 2 6 26% 1581 102140 14673 54%
c = 13.90 28 270 0 15 3761 31 41268 15060 3.3 25 7 2 6 26% 1777 102140 14575 54%
c d 13.90 28 270 0 15 3761 31 41268 14657 3.3 25 7 2 6 26% 1540 102140 14571 54%
c t 13.91 28 270 0 15 3761 31 41268 14657 3.3 25 7 2 6 26% 1531 102140 14571 54%
c f 13.93 28 270 0 15 3761 31 41268 14657 3.3 25 7 2 6 26% 1537 102122 14575 54%
c c 13.97 28 270 0 15 3761 31 41268 14570 3.3 25 7 2 6 26% 1577 101930 14552 54%
c d 13.98 28 270 0 15 3761 31 41268 14570 3.3 25 7 2 6 26% 1531 101930 14552 54%
c u 14.02 28 270 0 15 3761 31 41268 13406 3.3 25 7 2 6 26% 1542 101930 14552 54%
c v 14.06 28 270 0 15 3761 31 41268 12323 3.3 25 7 2 6 26% 1543 101930 14552 54%
c w 14.11 28 270 0 15 3761 31 41268 12318 3.3 25 7 2 6 26% 1543 101930 14552 54%
c d 14.27 28 270 0 15 3761 31 41268 12316 3.3 25 7 2 6 26% 1533 101930 14547 54%
c t 14.28 28 270 0 15 3761 31 41268 12316 3.3 25 7 2 6 26% 1531 101930 14547 54%
c - 14.33 28 269 0 16 3762 30 41484 11279 3.3 25 7 2 6 26% 1531 101930 14547 54%
c - 15.06 28 265 0 17 4178 30 45484 13391 3.3 25 8 2 6 27% 1558 101930 14547 54%
c
c  seconds   switched     rate         size/glue tier1    binary          remaining
c         MB   reductions   conflicts        size  tier2     irredundant
c           level   restarts      redundant    glue   trail          variables
c
c - 15.77 28 259 0 18 4570 30 49607 15406 3.3 25 8 2 6 27% 1606 101930 14547 54%
c s 15.96 28 266 0 18 4662 29 52137 17563 3.3 25 8 2 6 26% 1650 84772 14547 54%
c e 16.03 28 266 0 18 4662 29 52137 17563 3.3 25 8 2 6 26% 1413 85186 14289 53%
c s 16.03 28 266 0 18 4662 29 52137 17563 3.3 25 8 2 6 26% 1413 84953 14289 53%
c ^ 16.04 28 266 0 18 4662 29 52137 17563 3.3 25 8 2 6 26% 1413 84953 14289 53%
c - 16.21 28 264 0 19 4767 29 53850 16411 3.3 25 8 2 6 26% 1447 84953 14289 53%
c - 16.67 28 256 0 20 5060 28 58211 18013 3.2 24 8 2 6 26% 1518 84953 14289 53%
c c 16.80 28 255 0 20 5114 28 58895 18644 3.2 24 8 2 6 26% 1607 84260 14192 52%
c d 16.81 28 255 0 20 5114 28 58895 18258 3.2 24 8 2 6 26% 1413 84260 14192 52%
c u 16.85 28 255 0 20 5114 28 58895 15643 3.2 24 8 2 6 26% 1465 84260 14192 52%
c v 16.90 28 255 0 20 5114 28 58895 14098 3.2 24 8 2 6 26% 1470 84260 14192 52%
c w 16.94 28 255 0 20 5114 28 58895 14064 3.2 24 8 2 6 26% 1470 84260 14192 52%
c d 16.95 28 255 0 20 5114 28 58895 14042 3.2 24 8 2 6 26% 1434 84260 14174 52%
c t 16.96 28 255 0 20 5114 28 58895 14042 3.2 24 8 2 6 26% 1430 84260 14174 52%
c f 16.97 28 255 0 20 5114 28 58895 14042 3.2 24 8 2 6 26% 1435 84240 14177 52%
c c 17.01 28 255 0 20 5114 28 58895 13972 3.2 24 8 2 6 26% 1472 84056 14155 52%
c d 17.02 28 255 0 20 5114 28 58895 13972 3.2 24 8 2 6 26% 1428 84056 14155 52%
c u 17.06 28 255 0 20 5114 28 58895 13349 3.2 24 8 2 6 26% 1433 84056 14155 52%
c v 17.09 28 255 0 20 5114 28 58895 13012 3.2 24 8 2 6 26% 1434 84056 14155 52%
c w 17.12 28 255 0 20 5114 28 58895 12977 3.2 24 8 2 6 26% 1434 84056 14155 52%
c
c  seconds   switched     rate         size/glue tier1    binary         remaining
c         MB   reductions   conflicts        size  tier2     irredundant
c           level   restarts      redundant    glue   trail         variables
c
c x 17.17 28 255 0 20 5114 28 58895 12977 3.2 24 8 2 6 26% 1436 83697 14155 52%
c d 17.39 28 255 0 20 5114 28 58895 12977 3.2 24 8 2 6 26% 1430 83697 14152 52%
c t 17.39 28 255 0 20 5114 28 58895 12977 3.2 24 8 2 6 26% 1428 83697 14152 52%
c - 18.13 28 252 0 21 5604 28 62683 14907 3.2 25 8 2 6 27% 1448 83697 14152 52%
c - 18.91 28 245 0 22 6057 28 67266 15894 3.3 25 8 1 6 27% 1493 83697 14152 52%
c o 19.36 28 240 0 22 6321 28 70006 18370 3.3 26 8 1 6 28% 1527 83697 14152 52%
c - 19.48 28 234 0 23 6401 27 71957 16824 3.2 25 8 1 6 27% 1562 83697 14152 52%
c - 20.18 28 228 0 24 6825 27 76753 17640 3.2 25 8 1 6 27% 1628 83697 14152 52%
c c 20.61 28 224 0 24 7056 27 79964 20465 3.2 25 8 1 6 27% 1778 82689 13988 52%
c d 20.61 28 224 0 24 7056 27 79964 19956 3.2 25 8 1 6 27% 1450 82689 13988 52%
c u 20.65 28 224 0 24 7056 27 79964 18493 3.2 25 8 1 6 27% 1464 82689 13988 52%
c v 20.72 28 224 0 24 7056 27 79964 15362 3.2 25 8 1 6 27% 1476 82689 13988 52%
c w 20.86 28 224 0 24 7056 27 79964 15308 3.2 25 8 1 6 27% 1476 82689 13988 52%
c d 20.87 28 224 0 24 7056 27 79964 15278 3.2 25 8 1 6 27% 1456 82689 13978 52%
c t 20.88 28 224 0 24 7056 27 79964 15278 3.2 25 8 1 6 27% 1449 82689 13978 52%
c f 20.88 28 224 0 24 7056 27 79964 15278 3.2 25 8 1 6 27% 1451 82681 13979 52%
c c 20.92 28 224 0 24 7056 27 79964 15233 3.2 25 8 1 6 27% 1460 82642 13973 52%
c d 20.92 28 224 0 24 7056 27 79964 15233 3.2 25 8 1 6 27% 1448 82642 13973 52%
c u 20.96 28 224 0 24 7056 27 79964 14870 3.2 25 8 1 6 27% 1450 82642 13973 52%
c v 21.00 28 224 0 24 7056 27 79964 14151 3.2 25 8 1 6 27% 1453 82642 13973 52%
c
c  seconds   switched     rate         size/glue tier1    binary         remaining
c         MB   reductions   conflicts        size  tier2     irredundant
c           level   restarts      redundant    glue   trail         variables
c
c w 21.10 28 224 0 24 7056 27 79964 14058 3.2 25 8 1 6 27% 1453 82642 13973 52%
c x 21.14 28 224 0 24 7056 27 79964 14056 3.2 25 8 1 6 27% 1454 82602 13973 52%
c d 21.14 28 224 0 24 7056 27 79964 14056 3.2 25 8 1 6 27% 1452 82602 13972 51%
c t 21.15 28 224 0 24 7056 27 79964 14056 3.2 25 8 1 6 27% 1451 82602 13972 51%
c f 21.15 28 224 0 24 7056 27 79964 14056 3.2 25 8 1 6 27% 1448 82594 13974 52%
c - 21.41 28 222 0 25 7205 26 81651 13427 3.2 26 8 1 5 27% 1463 82594 13974 52%
c - 22.04 28 217 0 26 7588 26 86653 15506 3.2 25 8 1 5 27% 1496 82594 13974 52%
c - 22.66 28 213 0 27 7921 25 91753 17434 3.1 25 8 1 5 27% 1513 82594 13974 52%
c s 23.13 28 208 0 27 8185 25 95818 21011 3.1 25 8 1 5 27% 1573 82408 13974 52%
c e 23.21 28 208 0 27 8185 25 95818 21011 3.1 25 8 1 5 27% 1017 83912 13561 50%
c s 23.22 28 208 0 27 8185 25 95818 21011 3.1 25 8 1 5 27% 1028 83374 13561 50%
c e 23.23 28 208 0 27 8185 25 95818 21011 3.1 25 8 1 5 27% 1009 83410 13553 50%
c ^ 23.23 28 208 0 27 8185 25 95818 21011 3.1 25 8 1 5 27% 1009 83410 13553 50%
c - 23.36 28 206 0 28 8248 25 96951 17235 3.1 25 8 1 5 27% 1015 83410 13553 50%
c - 23.87 28 203 0 29 8479 24 102244 18531 3.1 24 8 1 5 27% 1088 83410 13553 50%
c d 23.93 28 200 0 29 8502 23 104590 20216 3.0 24 8 1 5 27% 1055 83410 13510 50%
c u 23.97 28 200 0 29 8502 23 104590 18749 3.0 24 8 1 5 27% 1074 83410 13510 50%
c v 24.03 28 200 0 29 8502 23 104590 16109 3.0 24 8 1 5 27% 1088 83410 13510 50%
c w 24.07 28 200 0 29 8502 23 104590 15697 3.0 24 8 1 5 27% 1091 83410 13510 50%
c = 24.30 28 200 0 29 8502 23 104590 15697 3.0 24 8 1 5 27% 1515 83406 13298 49%
c
c  seconds   switched     rate          size/glue tier1    binary         remaining
c         MB   reductions   conflicts         size  tier2     irredundant
c           level   restarts       redundant    glue   trail         variables
c
c d 24.31 28 200 0 29 8502 23 104590 15311 3.0 24 8 1 5 27% 1023 83406 13295 49%
c t 24.32 28 200 0 29 8502 23 104590 15311 3.0 24 8 1 5 27% 1011 83406 13295 49%
c f 24.34 28 200 0 29 8502 23 104590 15311 3.0 24 8 1 5 27% 1012 83386 13297 49%
c c 24.38 28 200 0 29 8502 23 104590 15263 3.0 24 8 1 5 27% 1044 83202 13277 49%
c d 24.38 28 200 0 29 8502 23 104590 15263 3.0 24 8 1 5 27% 1004 83202 13277 49%
c u 24.42 28 200 0 29 8502 23 104590 14896 3.0 24 8 1 5 27% 1010 83202 13277 49%
c v 24.45 28 200 0 29 8502 23 104590 14311 3.0 24 8 1 5 27% 1015 83202 13277 49%
c w 24.48 28 200 0 29 8502 23 104590 14124 3.0 24 8 1 5 27% 1015 83202 13277 49%
c d 24.48 28 200 0 29 8502 23 104590 14122 3.0 24 8 1 5 27% 1011 83202 13275 49%
c t 24.49 28 200 0 29 8502 23 104590 14122 3.0 24 8 1 5 27% 1010 83202 13275 49%
c - 24.83 28 197 0 30 8709 23 107629 14391 3.0 24 8 1 5 27% 1021 83201 13275 49%
c o 25.15 28 194 0 30 8927 23 110009 16661 3.0 24 8 1 5 27% 1026 83201 13275 49%
c - 25.44 28 193 0 31 9136 23 113107 16681 3.0 24 8 1 6 27% 1063 83201 13275 49%
c - 26.22 28 190 0 32 9637 22 118674 18851 3.0 24 8 1 5 27% 1104 83201 13275 49%
c - 26.67 28 186 0 33 9961 22 124330 20310 3.0 24 8 1 5 27% 1189 83201 13275 49%
c - 27.62 28 184 0 34 10564 22 130077 21811 3.1 25 8 1 5 27% 1210 83201 13275 49%
c c 28.02 28 182 0 34 10756 22 132844 24426 3.1 25 8 1 5 28% 1275 82514 13170 49%
c d 28.02 28 182 0 34 10756 22 132844 23926 3.1 25 8 1 5 28% 1065 82514 13170 49%
c u 28.07 28 182 0 34 10756 22 132844 22135 3.1 25 8 1 5 28% 1083 82514 13170 49%
c v 28.14 28 182 0 34 10756 22 132844 18809 3.1 25 8 1 5 28% 1091 82514 13170 49%
c
c  seconds   switched      rate          size/glue tier1    binary         remaining
c         MB   reductions    conflicts         size  tier2     irredundant
c           level   restarts        redundant    glue   trail         variables
c
c w 28.22 28 182 0 34 10756 22 132844 18801 3.1 25 8 1 5 28% 1091 82514 13170 49%
c x 28.29 28 182 0 34 10756 22 132844 18786 3.1 25 8 1 5 28% 1115 80404 13170 49%
c = 28.71 28 182 0 34 10756 22 132844 18786 3.1 25 8 1 5 28% 1645 80378 12905 48%
c d 28.72 28 182 0 34 10756 22 132844 18556 3.1 25 8 1 5 28% 1078 80378 12905 48%
c t 28.73 28 182 0 34 10756 22 132844 18556 3.1 25 8 1 5 28% 1018 80378 12905 48%
c f 28.74 28 182 0 34 10756 22 132844 18556 3.1 25 8 1 5 28% 1018 80282 12914 48%
c u 28.81 28 182 0 34 10756 22 132844 17939 3.1 25 8 1 5 28% 1025 80282 12914 48%
c v 28.85 28 182 0 34 10756 22 132844 17144 3.1 25 8 1 5 28% 1027 80282 12914 48%
c w 29.03 28 182 0 34 10756 22 132844 16732 3.1 25 8 1 5 28% 1027 80282 12914 48%
c t 29.39 28 182 0 34 10756 22 132844 16732 3.1 25 8 1 5 28% 1024 80282 12914 48%
c - 29.79 28 180 0 35 11007 22 135907 16955 3.1 25 8 1 5 28% 1027 80282 12914 48%
c - 30.56 28 177 0 36 11516 22 141827 19344 3.0 25 8 1 5 28% 1042 80282 12914 48%
c - 31.43 28 175 0 37 12105 22 147827 21378 3.1 26 8 1 5 29% 1063 80282 12914 48%
c - 32.24 28 172 0 38 12592 22 153909 23023 3.1 26 8 1 5 29% 1075 80282 12914 48%
c s 32.72 28 170 0 38 12894 21 157903 26713 3.1 26 8 1 5 29% 1099 78601 12914 48%
c e 32.81 28 170 0 38 12894 21 157903 26713 3.1 26 8 1 5 29% 919 89740 11458 42%
c s 32.83 28 170 0 38 12894 21 157903 26713 3.1 26 8 1 5 29% 921 87545 11458 42%
c e 32.85 28 170 0 38 12894 21 157903 26713 3.1 26 8 1 5 29% 900 87670 11439 42%
c ^ 32.85 28 170 0 38 12894 21 157903 26713 3.1 26 8 1 5 29% 900 87670 11439 42%
c - 33.05 28 169 0 39 13013 21 160073 18478 3.1 26 8 1 5 29% 906 87668 11439 42%
c
c  seconds   switched      rate          size/glue tier1   binary         remaining
c         MB   reductions    conflicts         size  tier2    irredundant
c           level   restarts        redundant    glue   trail        variables
c
c o 33.06 28 169 0 39 13014 21 160079 18484 3.1 26 8 1 5 29% 906 87668 11439 42%
c u 33.66 28 167 0 39 13403 21 164841 21077 3.1 26 8 1 5 30% 926 87664 11439 42%
c v 33.73 28 167 0 39 13403 21 164841 18195 3.1 26 8 1 5 30% 929 87664 11439 42%
c w 33.88 28 167 0 39 13403 21 164841 18150 3.1 26 8 1 5 30% 929 87664 11439 42%
c x 33.96 28 167 0 39 13403 21 164841 18135 3.1 26 8 1 5 30% 965 87427 11439 42%
c d 33.96 28 167 0 39 13403 21 164841 18135 3.1 26 8 1 5 30% 961 87427 11437 42%
c t 33.97 28 167 0 39 13403 21 164841 18135 3.1 26 8 1 5 30% 901 87427 11437 42%
c u 34.10 28 167 0 39 13403 21 164841 17784 3.1 26 8 1 5 30% 909 87427 11437 42%
c v 34.15 28 167 0 39 13403 21 164841 17115 3.1 26 8 1 5 30% 909 87427 11437 42%
c w 34.31 28 167 0 39 13403 21 164841 16683 3.1 26 8 1 5 30% 909 87427 11437 42%
c x 34.38 28 167 0 39 13403 21 164841 16683 3.1 26 8 1 5 30% 914 87373 11437 42%
c t 34.83 28 167 0 39 13403 21 164841 16683 3.1 26 8 1 5 30% 908 87373 11437 42%
c - 34.97 28 166 0 40 13459 21 166318 15358 3.0 26 8 1 5 29% 913 87373 11437 42%
c - 35.70 28 164 0 41 13915 21 172642 18117 3.0 26 8 1 5 30% 935 87372 11437 42%
c i 36.14 28 162 0 41 14184 20 177471 22628 3.0 25 8 1 5 30% 952 87371 11436 42%
c - 36.37 28 162 0 42 14348 20 179049 20375 3.0 25 8 1 5 30% 949 87371 11436 42%
c i 36.46 28 161 0 42 14396 20 180054 21300 3.0 25 8 1 5 30% 954 87371 11435 42%
c i 36.54 28 161 0 42 14456 20 180735 21924 3.0 25 8 1 5 30% 960 87371 11434 42%
c i 36.80 28 160 0 42 14634 20 182755 23844 3.0 25 9 1 5 30% 966 87371 11433 42%
c i 37.01 28 159 0 42 14780 20 184782 25772 3.0 25 9 1 5 30% 970 87367 11432 42%
c
c  seconds   switched      rate          size/glue tier1   binary         remaining
c         MB   reductions    conflicts         size  tier2    irredundant
c           level   restarts        redundant    glue   trail        variables
c
c - 37.11 28 159 0 43 14852 20 185529 21810 3.0 25 9 1 5 30% 955 87367 11432 42%
c i 37.25 28 158 0 43 14966 20 186480 22695 3.0 25 9 1 5 30% 959 87365 11430 42%
c i 37.25 28 158 0 43 14967 20 186528 22725 3.0 25 9 1 5 30% 962 87365 11429 42%
c i 37.88 28 157 0 43 15435 20 191709 27604 3.0 26 9 1 5 30% 978 87364 11428 42%
c - 37.93 28 156 0 44 15482 20 192088 23034 3.0 26 9 1 5 30% 976 87364 11428 42%
c i 38.05 28 155 0 44 15552 20 193970 24721 2.9 25 9 1 5 30% 988 87364 11427 42%
c i 38.14 28 154 0 44 15606 20 195216 25889 2.9 25 9 1 5 30% 991 87364 11426 42%
c i 38.21 28 154 0 44 15651 20 196006 26610 2.9 25 9 1 5 30% 996 87364 11424 42%
c i 38.31 28 154 0 44 15715 20 196976 27493 2.9 25 9 1 5 30% 1004 87362 11423 42%
c - 38.55 28 153 0 45 15893 20 198722 24069 2.9 25 9 1 5 30% 978 87362 11423 42%
c i 38.74 28 152 0 45 16011 20 200597 25824 2.9 25 9 1 5 30% 983 87361 11422 42%
c d 38.75 28 152 0 45 16011 20 200636 25833 2.9 25 9 1 5 30% 1005 87164 11417 42%
c d 38.75 28 152 0 45 16011 20 200636 25820 2.9 25 9 1 5 30% 976 87143 11403 42%
c b 38.75 28 152 0 45 16011 20 200636 25820 2.9 25 9 1 5 30% 976 87143 11401 42%
c u 38.79 28 152 0 45 16011 20 200636 24007 2.9 25 9 1 5 30% 998 87143 11401 42%
c v 38.87 28 152 0 45 16011 20 200636 19997 2.9 25 9 1 5 30% 1008 87143 11401 42%
c w 38.96 28 152 0 45 16011 20 200636 19533 2.9 25 9 1 5 30% 1008 87143 11401 42%
c d 38.96 28 152 0 45 16011 20 200636 19533 2.9 25 9 1 5 30% 1010 87121 11399 42%
c d 38.96 28 152 0 45 16011 20 200636 19533 2.9 25 9 1 5 30% 1003 87116 11396 42%
c t 38.97 28 152 0 45 16011 20 200636 19533 2.9 25 9 1 5 30% 971 87116 11396 42%
c
c  seconds   switched      rate          size/glue tier1   binary         remaining
c         MB   reductions    conflicts         size  tier2    irredundant
c           level   restarts        redundant    glue   trail        variables
c
c u 39.01 28 152 0 45 16011 20 200636 19171 2.9 25 9 1 5 30% 977 87116 11396 42%
c v 39.06 28 152 0 45 16011 20 200636 18402 2.9 25 9 1 5 30% 980 87116 11395 42%
c w 39.13 28 152 0 45 16011 20 200636 18194 2.9 25 9 1 5 30% 980 87116 11395 42%
c x 39.24 28 152 0 45 16011 20 200636 18153 2.9 25 9 1 5 30% 1050 85613 11392 42%
c d 39.24 28 152 0 45 16011 20 200636 18145 2.9 25 9 1 5 30% 1031 85606 11382 42%
c d 39.25 28 152 0 45 16011 20 200636 18145 2.9 25 9 1 5 30% 1029 85606 11381 42%
c t 39.25 28 152 0 45 16011 20 200636 18145 2.9 25 9 1 5 30% 979 85606 11381 42%
c i 39.26 28 152 0 45 16011 20 200636 18145 2.9 25 9 1 5 30% 979 85606 11381 42%
c i 39.30 28 152 0 45 16027 20 200939 18427 2.9 25 9 1 5 30% 981 85602 11380 42%
c i 39.33 28 152 0 45 16041 20 201435 18865 2.9 25 9 1 5 30% 984 85594 11379 42%
c i 39.63 28 150 0 45 16224 19 205119 22272 2.9 25 9 1 5 30% 993 85587 11378 42%
c i 39.63 28 150 0 45 16228 19 205143 22279 2.9 25 9 1 5 30% 996 85587 11377 42%
c - 39.66 28 150 0 46 16249 19 205430 18803 2.9 25 9 1 5 30% 955 85586 11377 42%
c i 39.78 28 149 0 46 16312 19 207125 20392 2.9 25 9 1 5 30% 962 85585 11376 42%
c i 39.80 28 149 0 46 16316 19 207418 20669 2.9 25 9 1 5 30% 964 85583 11375 42%
c i 39.84 28 149 0 46 16346 19 207842 21056 2.9 25 9 1 5 30% 969 85577 11373 42%
c i 39.85 28 149 0 46 16349 19 207879 21091 2.9 25 9 1 5 30% 970 85577 11372 42%
c i 39.93 28 148 0 46 16382 19 209005 22135 2.8 25 9 1 5 30% 974 85573 11371 42%
c i 39.97 28 148 0 46 16395 19 209637 22706 2.8 25 9 1 5 30% 981 85570 11370 42%
c i 39.99 28 148 0 46 16403 19 209921 22962 2.8 24 9 1 5 30% 984 85570 11369 42%
c
c  seconds   switched      rate          size/glue tier1   binary         remaining
c         MB   reductions    conflicts         size  tier2    irredundant
c           level   restarts        redundant    glue   trail        variables
c
c i 40.00 28 148 0 46 16410 19 209998 23026 2.8 24 9 1 5 30% 988 85569 11368 42%
c i 40.08 28 147 0 46 16453 19 211288 24194 2.8 24 9 1 5 30% 995 85568 11367 42%
c - 40.13 28 147 0 47 16486 18 212214 20936 2.8 24 9 1 5 30% 956 85568 11367 42%
c i 40.14 28 147 0 47 16499 18 212369 21083 2.8 24 9 1 5 30% 956 85568 11366 42%
c i 40.15 28 147 0 47 16507 18 212593 21262 2.8 24 9 1 5 29% 961 85568 11365 42%
c i 40.20 28 146 0 47 16562 18 213531 22109 2.8 24 9 1 5 29% 969 85565 11364 42%
c i 40.21 28 146 0 47 16568 18 213593 22155 2.8 24 9 1 5 29% 971 85565 11363 42%
c i 40.22 28 146 0 47 16574 18 213668 22218 2.8 24 9 1 5 29% 974 85565 11362 42%
c i 40.25 28 145 0 47 16600 18 214529 22965 2.8 24 9 1 5 29% 982 85557 11361 42%
c i 40.26 28 143 0 47 16605 18 216032 24216 2.8 24 9 1 5 29% 987 85553 11360 42%
c i 40.27 28 143 0 47 16608 18 216237 24384 2.8 24 9 1 5 29% 989 85550 11359 42%
c i 40.27 28 143 0 47 16608 18 216280 24399 2.8 24 9 1 5 29% 996 85550 11353 42%
c i 40.27 28 143 0 47 16608 18 216287 24401 2.8 24 9 1 5 29% 996 85550 11352 42%
c } 40.27 28 143 0 47 16608 18 216298 24402 2.8 24 9 1 5 29% 997 85550 11348 42%
c 0 40.27 28 143 0 47 16608 18 216298 24402 2.8 24 9 1 5 29% 997 85550 11348 42%
c
c ---- [ result ] ------------------------------------------------------------
c
s UNSATISFIABLE
c
c ---- [ profiling ] ---------------------------------------------------------
c
c          29.93   74.33 %  search
c          29.93   74.33 %  focused
c           9.74   24.19 %  simplify
c           9.37   23.27 %  probe
c           3.97    9.86 %  vivify
c           3.40    8.44 %  sweep
c           0.75    1.86 %  factor
c           0.65    1.61 %  eliminate
c           0.61    1.50 %  congruence
c           0.52    1.30 %  preprocess
c           0.51    1.25 %  substitute
c           0.23    0.58 %  fastel
c           0.22    0.55 %  reduce
c           0.11    0.27 %  subsume
c           0.09    0.22 %  transitive
c           0.05    0.13 %  backbone
c           0.05    0.12 %  lucky
c           0.02    0.05 %  parse
c =============================================
c          40.27  100.00 %  total
c
c ---- [ statistics ] --------------------------------------------------------
c
c chronological:                         7568                3 %  conflicts
c conflicts:                           216298             5371.10 per second
c congruent:                              492                2 %  variables
c decisions:                          4376954               20.24 per conflict
c eliminated:                           12986               48 %  variables
c factored:                              3690               14 %  variables
c fast_eliminated:                      10107               78 %  eliminated
c fast_strengthened:                      157                5 %  per strengthened
c fast_subsumed:                           95                0 %  per subsumed
c iterations:                              38                0 %  variables
c propagations:                     177863796          4416702    per second
c reductions:                              47             4602    interval
c reordered:                                6            36050    interval
c restarts:                             16608               13    interval
c strengthened:                          3315                0 %  checks
c substituted:                           6431               24 %  variables
c subsumed:                             39593                1 %  checks
c switched:                                 0                0    interval
c vivified:                             72515               12 %  checks
c
c ---- [ glue usage ] --------------------------------------------------------
c
c focused glue 1 used 343450 clauses 57.68% accumulated 57.68% tier1
c focused glue 2 used 115386 clauses 19.38% accumulated 77.06%
c focused glue 3 used  40315 clauses  6.77% accumulated 83.83%
c focused glue 4 used  21953 clauses  3.69% accumulated 87.51%
c focused glue 5 used  15430 clauses  2.59% accumulated 90.11% tier2
c
c ---- [ resources ] ---------------------------------------------------------
c
c maximum-resident-set-size:         29024256 bytes         28 MB
c process-time:                            40s              40.27 seconds
c
c ---- [ shutting down ] -----------------------------------------------------
c
c exit 20
